(set-logic HORN)
(declare-fun state (Int Int (Array Int Int) Int Int Bool Bool Int) Bool)
(assert (forall ((|E_3| Int) (|.y.8| Int) (|F_3| (Array Int Int)) (|D_3| Int) (|A_3| Int) (|.loc.9| Bool) (|.loc.10| Bool) (|G_3| Int) (|.loc.16| Bool) (|.y.15| Int) (|.y.14| Int) (|.y.11| Int) (|.y.13| (Array Int Int)) (|.loc.17| Bool) (|.y.12| Int) (|.xtv.1| Int)) (=> (and (not .loc.9) (not .loc.10)) (state |E_3| |.y.8| |F_3| |D_3| |A_3| |.loc.9| |.loc.10| |G_3|))))
(assert (forall ((|E_3| Int) (|.y.8| Int) (|F_3| (Array Int Int)) (|D_3| Int) (|A_3| Int) (|.loc.9| Bool) (|.loc.10| Bool) (|G_3| Int) (|.loc.16| Bool) (|.y.15| Int) (|.y.14| Int) (|.y.11| Int) (|.y.13| (Array Int Int)) (|.loc.17| Bool) (|.y.12| Int) (|.xtv.1| Int)) (=> (and (state |E_3| |.y.8| |F_3| |D_3| |A_3| |.loc.9| |.loc.10| |G_3|) (let ((.def_18 (not .loc.9))) (let ((.def_19 (not .loc.10))) (let ((.def_24 (<= (select F_3 G_3) (- 1)))) (let ((.def_32 (<= E_3 0))) (let ((.def_33 (not .def_32))) (let ((.def_37 (not (<= G_3 0)))) (let ((.def_38 (or .def_32 .def_37))) (let ((.def_39 (and (and (not (<= A_3 D_3)) (and (= (+ E_3 (+ D_3 (* (- 1) G_3))) 0) .def_33)) .def_38))) (let ((.def_49 (not .loc.16))) (let ((.def_53 (<= D_3 .y.8))) (let ((.def_56 (= E_3 .y.11))) (let ((.def_59 (= F_3 .y.13))) (let ((.def_89 (not .loc.17))) (or (or (and (or (or (and (and .def_18 (and .loc.10 (and .def_24 .def_39))) .loc.16) (and (= D_3 .y.15) (and (and (and (and (= .y.14 0) (and .def_19 (and .loc.9 .def_49))) .def_53) .def_56) .def_59))) (and (= A_3 .y.15) (and (= (+ D_3 (* (- 1) .y.14)) (- 1)) (and .def_59 (and .def_56 (and .def_49 (and .def_18 (and .loc.10 (and .def_39 (not .def_24)))))))))) .loc.17) (and (<= .y.14 G_3) (and (not (<= .y.14 (- 1))) (and (not (<= .y.11 0)) (and (= .y.12 0) (and (and .def_19 (and .loc.16 (and .def_18 .def_37))) .def_89)))))) (and (= D_3 .y.14) (and (not .def_53) (and (= (+ E_3 (+ .y.8 (* (- 1) G_3))) 0) (and (= .y.13 (store F_3 G_3 0)) (and (= (+ .y.8 (* (- 1) .y.12)) (- 1)) (and .def_89 (and .def_56 (and .def_19 (and .loc.16 (and .loc.9 (and .def_33 .def_38)))))))))))))))))))))))))) (state |.y.11| |.y.12| |.y.13| |.y.14| |.y.15| |.loc.16| |.loc.17| |.xtv.1|))))
(assert (forall ((|E_3| Int) (|.y.8| Int) (|F_3| (Array Int Int)) (|D_3| Int) (|A_3| Int) (|.loc.9| Bool) (|.loc.10| Bool) (|G_3| Int) (|.loc.16| Bool) (|.y.15| Int) (|.y.14| Int) (|.y.11| Int) (|.y.13| (Array Int Int)) (|.loc.17| Bool) (|.y.12| Int) (|.xtv.1| Int)) (=> (state |E_3| |.y.8| |F_3| |D_3| |A_3| |.loc.9| |.loc.10| |G_3|) (not (and .loc.9 .loc.10)))))
(check-sat)
